# Solution for model r5_t27_m6_4 Batch Number: 2
# Finished Task: 27 / 27
# Makespan: 739.0, Total Distance: 576.0, Total Time: 24.1489
# R O S F Batch
0 0 29 0.0 0.0 -1
1 1 9 0.0 0.0 -1
2 2 20 0.0 0.0 -1
3 3 17 0.0 0.0 -1
4 4 11 0.0 0.0 -1
5 1 21 523.0 543.0 1
6 4 7 368.0 405.0 0
7 4 13 459.0 490.0 0
8 4 26 530.0 558.0 0
9 1 10 193.0 230.0 0
10 1 23 230.0 258.0 0
11 4 6 119.0 156.0 0
12 3 16 447.0 486.0 0
13 4 8 504.0 530.0 0
14 2 18 601.0 624.0 1
15 0 25 589.0 627.0 1
16 3 24 486.0 520.0 0
17 3 12 287.0 323.0 0
18 2 31 665.0 690.0 1
19 1 5 469.0 499.0 0
20 2 14 514.0 553.0 0
21 1 30 569.0 589.0 1
22 0 15 482.0 510.0 0
23 1 27 345.0 368.0 0
24 3 28 520.0 558.0 0
25 0 -1 645.0 665.0 1
26 4 -1 578.0 603.0 1
27 1 19 379.0 409.0 0
28 3 -1 663.0 691.0 1
29 0 22 431.0 459.0 0
30 1 -1 608.0 630.0 1
31 2 -1 713.0 739.0 1
